nEmpreses = 47;
nReunions = 180;
nTaules = 21;
nFrangesTotal = 10;
nForats = 10;

reunions = [|5,3,9,6,8,10,2,7,1,4,
|0,0,0,0,0,0,0,0,0,0,
|0,0,0,0,0,15,13,14,11,12,
|0,22,19,16,20,18,17,21,11,0,
|0,0,0,24,29,23,28,26,27,25,
|0,0,33,34,31,32,37,36,30,35,
|39,38,41,16,40,0,0,0,0,0,
|0,0,47,46,45,44,43,42,49,48,
|0,0,0,0,0,50,53,51,54,52,
|0,0,0,57,58,23,55,56,1,59,
|65,38,61,63,62,64,55,60,66,12,
|0,0,0,0,0,69,13,67,68,70,
|78,77,76,24,75,71,73,79,72,74,
|39,84,86,80,81,50,82,85,83,25,
|0,0,0,0,0,0,88,60,87,89,
|0,94,61,92,96,90,17,91,93,95,
|98,99,97,102,62,100,101,42,30,0,
|107,105,97,63,31,103,43,108,104,106,
|0,115,112,109,113,44,114,51,111,110,
|0,118,117,80,40,116,0,0,0,0,
|0,0,0,0,120,103,121,26,122,119,
|0,124,129,125,126,130,2,128,127,123,
|135,132,133,134,136,71,131,14,137,52,
|0,0,0,0,81,139,140,138,141,123,
|0,124,145,144,45,90,142,143,27,0,
|0,3,150,109,146,148,131,147,72,149,
|0,0,152,125,146,153,73,67,87,151,
|156,132,154,46,157,32,82,91,155,110,
|0,0,0,159,158,18,88,56,83,74,
|0,0,19,92,158,160,142,161,68,119,
|0,0,0,0,75,116,162,143,111,0,
|166,84,47,57,20,165,28,163,104,164,
|0,0,76,167,126,69,53,85,93,4,
|5,169,154,144,168,64,170,163,127,0,
|98,105,133,172,168,15,171,147,173,151,
|0,0,152,177,29,176,174,138,175,48,
|65,99,33,6,0,0,0,0,0,0,
|0,77,117,159,58,139,174,7,155,164,
|0,0,0,0,0,0,0,0,0,0,
|78,169,112,134,120,148,171,178,175,106,
|135,94,145,34,113,100,140,178,66,89,
|0,0,0,172,8,165,114,21,49,70,
|156,22,86,167,136,176,170,128,173,35,
|107,115,129,179,180,160,121,79,141,149,
|0,0,9,179,157,130,101,36,54,95,
|0,0,150,177,96,10,37,108,137,0,
|166,118,41,102,180,153,162,161,122,59,
|];

fixades = [0, 0, 0, 0, 0, 0, 0, 0, 0, 1, 0, 0, 0, 0, 2, 0, 0, 3, 0, 0, 0, 0, 4, 0, 0, 0, 0, 0, 0, 0, 0, 5, 0, 0, 0, 0, 0, 0, 0, 0, 0, 0, 0, 6, 0, 0, 0, 0, 0, 7, 0, 0, 0, 0, 0, 0, 0, 0, 0, 0, 0, 0, 0, 8, 0, 0, 0, 0, 9, 0, 10, 0, 0, 0, 0, 0, 0, 0, 0, 0, 0, 0, 0, 0, 0, 0, 0, 0, 0, 11, 0, 0, 0, 0, 0, 0, 0, 0, 0, 12, 0, 0, 13, 0, 0, 0, 0, 0, 0, 0, 0, 0, 0, 0, 0, 14, 0, 0, 0, 0, 0, 0, 0, 0, 0, 0, 0, 0, 0, 15, 0, 0, 0, 0, 0, 0, 0, 0, 16, 0, 0, 0, 0, 0, 0, 0, 0, 17, 0, 0, 0, 0, 18, 0, 0, 0, 0, 0, 0, 19, 0, 0, 0, 0, 20, 0, 0, 0, 0, 0, 0, 0, 0, 0, 0, 21, 0, 0, 0, 0, ];


listReunions = [|1, 10, 9, 
|1, 22, 7, 
|1, 26, 2, 
|1, 33, 10, 
|1, 34, 1, 
|1, 37, 4, 
|1, 38, 8, 
|1, 42, 5, 
|1, 45, 3, 
|1, 46, 6, 
|3, 4, 9, 
|3, 11, 10, 
|3, 12, 7, 
|3, 23, 8, 
|3, 35, 6, 
|4, 7, 4, 
|4, 16, 7, 
|4, 29, 6, 
|4, 30, 3, 
|4, 32, 5, 
|4, 42, 8, 
|4, 43, 2, 
|5, 10, 6, 
|5, 13, 4, 
|5, 14, 10, 
|5, 21, 8, 
|5, 25, 9, 
|5, 32, 7, 
|5, 36, 5, 
|6, 17, 9, 
|6, 18, 5, 
|6, 28, 6, 
|6, 37, 3, 
|6, 41, 4, 
|6, 43, 10, 
|6, 45, 8, 
|6, 46, 7, 
|7, 11, 2, 
|7, 14, 1, 
|7, 20, 5, 
|7, 47, 3, 
|8, 17, 8, 
|8, 18, 7, 
|8, 19, 6, 
|8, 25, 5, 
|8, 28, 4, 
|8, 32, 3, 
|8, 36, 10, 
|8, 42, 9, 
|9, 14, 6, 
|9, 19, 8, 
|9, 23, 10, 
|9, 33, 7, 
|9, 45, 9, 
|10, 11, 7, 
|10, 29, 8, 
|10, 32, 4, 
|10, 38, 5, 
|10, 47, 10, 
|11, 15, 8, 
|11, 16, 3, 
|11, 17, 5, 
|11, 18, 4, 
|11, 34, 6, 
|11, 37, 1, 
|11, 41, 9, 
|12, 27, 8, 
|12, 30, 9, 
|12, 33, 6, 
|12, 42, 10, 
|13, 23, 6, 
|13, 26, 9, 
|13, 27, 7, 
|13, 29, 10, 
|13, 31, 5, 
|13, 33, 3, 
|13, 38, 2, 
|13, 40, 1, 
|13, 44, 8, 
|14, 20, 4, 
|14, 24, 5, 
|14, 28, 7, 
|14, 29, 9, 
|14, 32, 2, 
|14, 33, 8, 
|14, 43, 3, 
|15, 27, 9, 
|15, 29, 7, 
|15, 41, 10, 
|16, 25, 6, 
|16, 28, 8, 
|16, 30, 4, 
|16, 33, 9, 
|16, 41, 2, 
|16, 45, 10, 
|16, 46, 5, 
|17, 18, 3, 
|17, 35, 1, 
|17, 37, 2, 
|17, 41, 6, 
|17, 45, 7, 
|17, 47, 4, 
|18, 21, 6, 
|18, 32, 9, 
|18, 35, 2, 
|18, 40, 10, 
|18, 44, 1, 
|18, 46, 8, 
|19, 26, 4, 
|19, 28, 10, 
|19, 31, 9, 
|19, 40, 3, 
|19, 41, 5, 
|19, 42, 7, 
|19, 44, 2, 
|20, 31, 6, 
|20, 38, 3, 
|20, 47, 2, 
|21, 30, 10, 
|21, 40, 5, 
|21, 44, 7, 
|21, 47, 9, 
|22, 24, 10, 
|22, 25, 2, 
|22, 27, 4, 
|22, 33, 5, 
|22, 34, 9, 
|22, 43, 8, 
|22, 44, 3, 
|22, 45, 6, 
|23, 26, 7, 
|23, 28, 2, 
|23, 35, 3, 
|23, 40, 4, 
|23, 41, 1, 
|23, 43, 5, 
|23, 46, 9, 
|24, 36, 8, 
|24, 38, 6, 
|24, 41, 7, 
|24, 44, 9, 
|25, 30, 7, 
|25, 31, 8, 
|25, 34, 4, 
|25, 41, 3, 
|26, 27, 5, 
|26, 35, 8, 
|26, 40, 6, 
|26, 44, 10, 
|26, 46, 3, 
|27, 35, 10, 
|27, 36, 3, 
|27, 47, 6, 
|28, 34, 3, 
|28, 38, 9, 
|28, 43, 1, 
|28, 45, 5, 
|29, 30, 5, 
|29, 38, 4, 
|30, 44, 6, 
|30, 47, 8, 
|31, 47, 7, 
|32, 34, 8, 
|32, 38, 10, 
|32, 42, 6, 
|32, 47, 1, 
|33, 43, 4, 
|34, 35, 5, 
|34, 40, 2, 
|34, 43, 7, 
|35, 40, 7, 
|35, 42, 4, 
|35, 43, 9, 
|36, 38, 7, 
|36, 40, 9, 
|36, 43, 6, 
|36, 46, 4, 
|40, 41, 8, 
|44, 45, 4, 
|44, 47, 5, 
|];
